25824925824682558219822882198219731958228821958219468218673194682168582194682186731973189146914683716673459155912891469146911991469146915837267346731982197345914937195644664196446641964192941691198371667345837168371937196455645645564834119583864283719371956419644664826483483464919227916491919528373546276546554681681655462761927619182919737346554691738273816816546